COLUMNS

passenger_count
pickup_ID
dropoff_ID
request_time_sec
pickup_district
dropoff_district
LDuals
IDuals
vehicle_ID
pick_position
drop_position

REQUESTS_INFO
1      679       133       31625     290       9         112       112       2         1         3         
2      915       1128      31649     291       291       113       113       61        1         2         
1      236       419       31621     87        168       110       110       217       1         2         
3      297       675       31622     277       189       184       184       338       1         2         
1      771       559       31642     290       189       116       116       348       1         3         
1      772       946       31627     290       290       93        93        622       1         2         
1      772       581       31597     290       189       162       162       771       1         2         
1      420       99        31626     168       286       151       151       783       1         3         
1      837       679       31636     290       290       127       127       860       1         3         
3      960       719       31621     291       189       147       147       981       1         2         
1      896       781       31645     291       291       147       147       984       1         3         
1      887       1046      31643     290       291       137       137       1056      1         3         
3      795       627       31564     290       189       229       229       1169      1         2         
2      297       675       31622     277       189       184       184       1934      1         3         
1      950       835       31650     290       290       0         0         0         0         0         
1      412       79        31651     52        98        0         0         0         0         0         
1      1068      1282      31651     291       192       0         0         0         0         0         
4      698       605       31652     189       189       0         0         0         0         0         
1      766       628       31652     290       189       0         0         0         0         0         
1      358       789       31653     168       290       0         0         0         0         0         
1      693       526       31653     280       52        0         0         0         0         0         
1      327       333       31653     299       119       0         0         0         0         0         
1      677       232       31653     189       266       0         0         0         0         0         
1      1004      742       31653     291       290       0         0         0         0         0         
1      354       604       31653     119       189       0         0         0         0         0         
1      315       292       31654     277       87        0         0         0         0         0         
2      134       43        31654     9         9         0         0         0         0         0         
1      1022      1044      31654     291       291       0         0         0         0         0         
1      791       862       31654     290       290       0         0         0         0         0         
1      43        285       31654     9         299       0         0         0         0         0         
1      576       737       31655     189       189       0         0         0         0         0         
1      597       399       31655     131       168       0         0         0         0         0         
1      599       554       31655     280       189       0         0         0         0         0         
2      602       474       31655     189       52        0         0         0         0         0         
3      602       474       31655     189       52        0         0         0         0         0         
1      354       555       31656     119       199       0         0         0         0         0         
2      349       553       31656     127       189       0         0         0         0         0         
1      675       533       31656     189       199       0         0         0         0         0         
1      621       744       31656     280       290       0         0         0         0         0         
1      413       378       31656     52        168       0         0         0         0         0         
3      1109      1218      31657     291       84        0         0         0         0         0         
1      333       652       31657     119       189       0         0         0         0         0         
3      527       748       31657     52        290       0         0         0         0         0         
3      527       748       31657     52        290       0         0         0         0         0         
1      413       646       31657     52        280       0         0         0         0         0         
1      937       717       31658     291       189       0         0         0         0         0         
1      948       1032      31658     290       84        0         0         0         0         0         
3      700       1001      31658     290       291       0         0         0         0         0         
3      48        605       31658     98        189       0         0         0         0         0         
3      48        605       31658     98        189       0         0         0         0         0         
3      509       624       31659     199       189       0         0         0         0         0         
2      509       624       31659     199       189       0         0         0         0         0         
1      834       738       31659     290       189       0         0         0         0         0         
2      847       960       31659     291       291       0         0         0         0         0         
4      549       647       31659     52        280       0         0         0         0         0         
1      511       675       31659     199       189       0         0         0         0         0         
2      1301      1263      31659     192       192       0         0         0         0         0         
1      655       1032      31659     189       84        0         0         0         0         0         
3      1301      1263      31659     192       192       0         0         0         0         0         
1      835       923       31660     290       290       0         0         0         0         0         
1      527       390       31661     52        52        0         0         0         0         0         
1      743       595       31661     290       131       0         0         0         0         0         
1      327       924       31662     299       290       0         0         0         0         0         
1      686       826       31662     131       291       0         0         0         0         0         
1      651       722       31662     189       290       0         0         0         0         0         
1      938       1517      31662     291       296       0         0         0         0         0         
1      804       894       31663     291       291       0         0         0         0         0         
2      527       122       31663     52        54        0         0         0         0         0         
3      194       10        31665     207       98        0         0         0         0         0         
4      861       527       31665     290       52        0         0         0         0         0         
2      724       558       31665     290       189       0         0         0         0         0         
3      461       826       31665     189       291       0         0         0         0         0         
2      461       826       31665     189       291       0         0         0         0         0         
1      913       720       31666     291       290       0         0         0         0         0         
1      268       232       31666     299       266       0         0         0         0         0         
1      608       462       31666     189       189       0         0         0         0         0         
1      1263      1003      31666     192       291       0         0         0         0         0         
3      795       910       31666     290       290       0         0         0         0         0         
4      597       646       31667     131       280       0         0         0         0         0         
1      818       557       31667     290       189       0         0         0         0         0         
1      579       390       31667     189       52        0         0         0         0         0         
1      507       578       31667     189       189       0         0         0         0         0         
1      648       478       31668     189       52        0         0         0         0         0         
1      605       527       31668     189       52        0         0         0         0         0         
1      310       778       31668     127       131       0         0         0         0         0         
1      925       738       31668     290       189       0         0         0         0         0         
1      351       647       31670     52        280       0         0         0         0         0         
1      791       627       31670     290       189       0         0         0         0         0         
1      510       510       31671     199       199       0         0         0         0         0         
1      546       714       31671     52        131       0         0         0         0         0         
1      485       334       31671     189       119       0         0         0         0         0         
1      817       727       31671     290       290       0         0         0         0         0         
3      582       10        31672     189       98        0         0         0         0         0         
2      582       10        31672     189       98        0         0         0         0         0         
1      722       652       31673     290       189       0         0         0         0         0         
3      816       716       31673     290       189       0         0         0         0         0         
2      816       716       31673     290       189       0         0         0         0         0         
1      354       306       31674     119       299       0         0         0         0         0         
1      444       529       31674     168       189       0         0         0         0         0         
1      104       676       31675     287       189       0         0         0         0         0         
1      526       626       31675     52        189       0         0         0         0         0         
1      662       738       31675     131       189       0         0         0         0         0         
1      460       627       31675     189       189       0         0         0         0         0         
1      927       699       31676     290       290       0         0         0         0         0         
2      439       628       31677     189       189       0         0         0         0         0         
3      627       594       31677     189       131       0         0         0         0         0         
2      627       594       31677     189       131       0         0         0         0         0         
1      702       582       31677     290       189       0         0         0         0         0         
1      652       727       31677     189       290       0         0         0         0         0         
1      1432      1436      31678     129       129       0         0         0         0         0         
3      183       606       31678     178       189       0         0         0         0         0         
1      840       727       31678     290       290       0         0         0         0         0         
1      745       836       31678     290       290       0         0         0         0         0         
3      1088      1098      31678     291       84        0         0         0         0         0         
3      1088      1098      31678     291       84        0         0         0         0         0         
1      885       861       31679     290       290       0         0         0         0         0         
